%%% static parameters %%%
timespan = 1;
Fact = [2];
Distr1 = [5];
Distr2 = [10];
Clients_N = [100];
Demand_W = [15];
Lt0 = [4];
Lt1 = [4];
SS_ = [0.85];
DS_D = [8];
K = [200];
MA = [500];
%%% dynamic parameters %%%
lost_ratio_sales_ret_th = 0.7067912505418268;
lost_ratio_sales_ret_w = 27;
lost_ratio_sales_dis_th = 0.6444016065257688;
lost_ratio_sales_dis_w = 71;
lost_ratio_sales_fac_th = 0.6938826542110096;
lost_ratio_sales_fac_w = 32;
stock_customer_MA_mean_relative_th = 0.11729071291503756;
stock_customer_MA_mean_relative_w = 28;
stock_distributor_MA_mean_relative_th = 0.26425883804370176;
stock_distributor_MA_mean_relative_w = 29;
stock_retailer_MA_mean_relative_th = 0.39555631297933125;
stock_retailer_MA_mean_relative_w = 37;
stock_factory_MA_mean_relative_th = 0.7914716323364746;
stock_factory_MA_mean_relative_w = 16;
